StringID     Type         x            y            demand       ReadyTime    DueDate      ServiceTime  PartnerID
D0           d            35.0         35.0         0.0          0.0          850.0        4.0          0
C1           cp           30.0         40.0         25.0         35.0         322.0        15.0         C8
C2           cp           46.0         32.0         30.0         32.0         333.0        15.0         C9
C3           cp           33.0         24.0         35.0         37.0         325.0        15.0         C10
C4           cp           40.0         30.0         40.0         33.0         342.0        15.0         C11
C5           cp           40.0         43.0         45.0         35.0         339.0        15.0         C12
C6           cp           28.0         28.0         50.0         34.0         355.0        15.0         C13
C7           cp           28.0         42.0         30.0         36.0         352.0        15.0         C14
C8           cd           30.0         22.0         -25.0        52.0         560.0        15.0         C1
C9           cd           25.0         39.0         -30.0        55.0         565.0        16.0         C2
C10          cd           25.0         27.0         -35.0        53.0         563.0        15.0         C3
C11          cd           40.0         34.0         -40.0        58.0         561.0        17.0         C4
C12          cd           41.0         49.0         -45.0        54.0         563.0        15.0         C5
C13          cd           42.0         40.0         -50.0        55.0         562.0        14.0         C6
C14          cd           48.0         22.0         -30.0        56.0         561.0        16.0         C7

VehicleCount : 1
VehiclePerCapacity:   60
VehicleMaxTrolleyCount: 2
TrolleyImpactRate: 20.0
EarlinessPenalty: 10
TardinessPenalty: 10
